============================[ Problem Statistics ]=============================|                                                                             ||  Number of variables:          4242                                         ||  Number of clauses:            9994                                         ||  Parse time:                   0.39 s                                       ||                                                                             |============================[ Search Statistics ]==============================| Conflicts |          ORIGINAL         |          LEARNT          | Progress ||           |    Vars  Clauses Literals |    Limit  Clauses Lit/Cl |          |===============================================================================|       100 |    1591     6199   610010 |     2272      100     53 | 62.501 % |===============================================================================restarts              : 3conflicts             : 221            (378 /sec)decisions             : 487            (0.00 % random) (832 /sec)propagations          : 11693          (19988 /sec)conflict literals     : 16106          (95.03 % deleted)CPU time              : 0.585 sSATISFIABLE